c turning on binary mode checking
c parsing input formula with 259840 variables and 1039929 clauses
c finished parsing, read 23605695 bytes from proof file
c detected empty clause; start verification via backward checking
c 16366 of 1039929 clauses in core                            
c 20412 of 608975 lemmas in core using 197507 resolution steps
c 0 RAT lemmas in core; 1504 redundant literals in core lemmas
s VERIFIED
c verification time: 2.840 seconds
